0 53 64 79 93 62 60 77 73 81 52 97 50 58 70 61 92 51 90 56 67 82 58 71 88 68 77 90 85 65 64 73 96 69 51 66 67 81 94 52 69 67 91 56 70 95 69 64 98 65 58 51 64 72 62 65 52 55 67 92 67 84 51 58 68 77 56 91 64 75 87 51 74 62 74 75 70 84 